% File represents an instance of a Composite Structure problem to be solved by a CP framework
% Created on 2025-03-25 14:06:11.911
T = 58;
n = 16;
m = 24;
edges = [(1, 2),
(6, 5),
(9, 10),
(14, 13),
(3, 2),
(6, 7),
(10, 11),
(15, 14),
(4, 3),
(8, 7),
(12, 11),
(16, 15),
(1, 5),
(5, 9),
(9, 13),
(6, 2),
(6, 10),
(14, 10),
(3, 7),
(7, 11),
(15, 11),
(4, 8),
(8, 12),
(16, 12)];
counts = [|4, 20, 14, 16,
|4, 20, 14, 12,
|4, 20, 14, 14,
|6, 20, 16, 16,
|4, 20, 12, 16,
|4, 24, 14, 16,
|4, 20, 10, 14,
|4, 20, 14, 16,
|4, 20, 10, 16,
|4, 20, 10, 14,
|4, 20, 10, 10,
|4, 20, 10, 16,
|4, 20, 8, 14,
|4, 20, 10, 18,
|4, 20, 10, 20,
|4, 22, 10, 20|];
